NAME          NONAME
ROWS
 N  r0
 L  r1
 L  r2
 L  r3
COLUMNS
    ISTART01  'MARKER'                 'INTORG'
    c1        r0             38.0000   r1               2.000
    c1        r2             1.00000   r3               2.000
    c2        r0             20.0000   r1               2.000
    c2        r3             -2.0000
    c3        r0             41.0000   r1               2.000
    c3        r2             -3.0000   r3               5.000
    c4        r0             35.0000   r1               1.000
    c4        r2              5.0000   r3               3.000
    IEND0001  'MARKER'                 'INTEND'
RHS
    RHS       r1              32.000   r2               2.000
    RHS       r3              17.000
BOUNDS
 UP BND       c1              100.00
 UP BND       c2              100.00
 UP BND       c3              100.00
 UP BND       c4              100.00
ENDATA
